p cnf 1136
-18 -354
-19 -357
-20 -360
-21 -363
-22 -366
-23 -369
-24 -372
-25 -375
-26 -378
-27 -381
-28 -384
-29 -387
-30 -390
-31 -393
-32 -396
-33 -399
-34 -402
-35 403
-36 404
-37 405
-38 406
-39 407
-40 408
-41 409
-42 410
-43 -19
-43 -20
19 20 43
-44 -21
-44 -22
21 22 44
-45 -23
-45 -24
23 24 45
-46 -25
-46 -26
25 26 46
-47 -27
-47 -28
27 28 47
-48 -29
-48 -30
29 30 48
-49 -31
-49 -32
31 32 49
-50 -33
-50 -34
33 34 50
-51 -35
-51 -36
35 36 51
-52 -37
-52 -38
37 38 52
-53 -39
-53 -40
39 40 53
-54 -41
-54 -42
41 42 54
-55 43
-55 44
-43 -44 55
-56 45
-56 46
-45 -46 56
-57 47
-57 48
-47 -48 57
-58 49
-58 50
-49 -50 58
-59 51
-59 52
-51 -52 59
-60 53
-60 54
-53 -54 60
-61 55
-61 56
-55 -56 61
-62 57
-62 58
-57 -58 62
-63 59
-63 60
-59 -60 63
-64 61
-64 62
-61 -62 64
-65 63
-65 64
-63 -64 65
-66 -18
-66 19
18 -19 66
-67 18
-67 -19
-18 19 67
-68 -66
-68 -67
66 67 68
-69 18
-69 19
-18 -19 69
-70 -18
-70 -68
18 68 70
-71 18
-71 68
-18 -68 71
-72 -70
-72 -71
70 71 72
-73 18
-73 -68
-18 68 73
-74 -69
-74 -73
69 73 74
-75 -19
-75 20
19 -20 75
-76 19
-76 -20
-19 20 76
-77 -75
-77 -76
75 76 77
-78 19
-78 20
-19 -20 78
-79 74
-79 -77
-74 77 79
-80 -74
-80 77
74 -77 80
-81 -79
-81 -80
79 80 81
-82 -74
-82 -77
74 77 82
-83 -78
-83 -82
78 82 83
-84 -20
-84 21
20 -21 84
-85 20
-85 -21
-20 21 85
-86 -84
-86 -85
84 85 86
-87 20
-87 21
-20 -21 87
-88 83
-88 -86
-83 86 88
-89 -83
-89 86
83 -86 89
-90 -88
-90 -89
88 89 90
-91 -83
-91 -86
83 86 91
-92 -87
-92 -91
87 91 92
-93 -21
-93 22
21 -22 93
-94 21
-94 -22
-21 22 94
-95 -93
-95 -94
93 94 95
-96 21
-96 22
-21 -22 96
-97 92
-97 -95
-92 95 97
-98 -92
-98 95
92 -95 98
-99 -97
-99 -98
97 98 99
-100 -92
-100 -95
92 95 100
-101 -96
-101 -100
96 100 101
-102 -22
-102 23
22 -23 102
-103 22
-103 -23
-22 23 103
-104 -102
-104 -103
102 103 104
-105 22
-105 23
-22 -23 105
-106 101
-106 -104
-101 104 106
-107 -101
-107 104
101 -104 107
-108 -106
-108 -107
106 107 108
-109 -101
-109 -104
101 104 109
-110 -105
-110 -109
105 109 110
-111 -23
-111 24
23 -24 111
-112 23
-112 -24
-23 24 112
-113 -111
-113 -112
111 112 113
-114 23
-114 24
-23 -24 114
-115 110
-115 -113
-110 113 115
-116 -110
-116 113
110 -113 116
-117 -115
-117 -116
115 116 117
-118 -110
-118 -113
110 113 118
-119 -114
-119 -118
114 118 119
-120 -24
-120 25
24 -25 120
-121 24
-121 -25
-24 25 121
-122 -120
-122 -121
120 121 122
-123 24
-123 25
-24 -25 123
-124 119
-124 -122
-119 122 124
-125 -119
-125 122
119 -122 125
-126 -124
-126 -125
124 125 126
-127 -119
-127 -122
119 122 127
-128 -123
-128 -127
123 127 128
-129 -25
-129 26
25 -26 129
-130 25
-130 -26
-25 26 130
-131 -129
-131 -130
129 130 131
-132 25
-132 26
-25 -26 132
-133 128
-133 -131
-128 131 133
-134 -128
-134 131
128 -131 134
-135 -133
-135 -134
133 134 135
-136 -128
-136 -131
128 131 136
-137 -132
-137 -136
132 136 137
-138 -26
-138 27
26 -27 138
-139 26
-139 -27
-26 27 139
-140 -138
-140 -139
138 139 140
-141 26
-141 27
-26 -27 141
-142 137
-142 -140
-137 140 142
-143 -137
-143 140
137 -140 143
-144 -142
-144 -143
142 143 144
-145 -137
-145 -140
137 140 145
-146 -141
-146 -145
141 145 146
-147 -27
-147 28
27 -28 147
-148 27
-148 -28
-27 28 148
-149 -147
-149 -148
147 148 149
-150 27
-150 28
-27 -28 150
-151 146
-151 -149
-146 149 151
-152 -146
-152 149
146 -149 152
-153 -151
-153 -152
151 152 153
-154 -146
-154 -149
146 149 154
-155 -150
-155 -154
150 154 155
-156 -28
-156 29
28 -29 156
-157 28
-157 -29
-28 29 157
-158 -156
-158 -157
156 157 158
-159 28
-159 29
-28 -29 159
-160 155
-160 -158
-155 158 160
-161 -155
-161 158
155 -158 161
-162 -160
-162 -161
160 161 162
-163 -155
-163 -158
155 158 163
-164 -159
-164 -163
159 163 164
-165 -29
-165 30
29 -30 165
-166 29
-166 -30
-29 30 166
-167 -165
-167 -166
165 166 167
-168 29
-168 30
-29 -30 168
-169 164
-169 -167
-164 167 169
-170 -164
-170 167
164 -167 170
-171 -169
-171 -170
169 170 171
-172 -164
-172 -167
164 167 172
-173 -168
-173 -172
168 172 173
-174 -30
-174 31
30 -31 174
-175 30
-175 -31
-30 31 175
-176 -174
-176 -175
174 175 176
-177 30
-177 31
-30 -31 177
-178 173
-178 -176
-173 176 178
-179 -173
-179 176
173 -176 179
-180 -178
-180 -179
178 179 180
-181 -173
-181 -176
173 176 181
-182 -177
-182 -181
177 181 182
-183 -31
-183 32
31 -32 183
-184 31
-184 -32
-31 32 184
-185 -183
-185 -184
183 184 185
-186 31
-186 32
-31 -32 186
-187 182
-187 -185
-182 185 187
-188 -182
-188 185
182 -185 188
-189 -187
-189 -188
187 188 189
-190 -182
-190 -185
182 185 190
-191 -186
-191 -190
186 190 191
-192 -32
-192 33
32 -33 192
-193 32
-193 -33
-32 33 193
-194 -192
-194 -193
192 193 194
-195 32
-195 33
-32 -33 195
-196 191
-196 -194
-191 194 196
-197 -191
-197 194
191 -194 197
-198 -196
-198 -197
196 197 198
-199 -191
-199 -194
191 194 199
-200 -195
-200 -199
195 199 200
-201 -33
-201 34
33 -34 201
-202 33
-202 -34
-33 34 202
-203 -201
-203 -202
201 202 203
-204 33
-204 34
-33 -34 204
-205 200
-205 -203
-200 203 205
-206 -200
-206 203
200 -203 206
-207 -205
-207 -206
205 206 207
-208 -200
-208 -203
200 203 208
-209 -204
-209 -208
204 208 209
-210 -34
-210 35
34 -35 210
-211 34
-211 -35
-34 35 211
-212 -210
-212 -211
210 211 212
-213 34
-213 35
-34 -35 213
-214 209
-214 -212
-209 212 214
-215 -209
-215 212
209 -212 215
-216 -214
-216 -215
214 215 216
-217 -209
-217 -212
209 212 217
-218 -213
-218 -217
213 217 218
-219 -35
-219 36
35 -36 219
-220 35
-220 -36
-35 36 220
-221 -219
-221 -220
219 220 221
-222 35
-222 36
-35 -36 222
-223 218
-223 -221
-218 221 223
-224 -218
-224 221
218 -221 224
-225 -223
-225 -224
223 224 225
-226 -218
-226 -221
218 221 226
-227 -222
-227 -226
222 226 227
-228 -36
-228 37
36 -37 228
-229 36
-229 -37
-36 37 229
-230 -228
-230 -229
228 229 230
-231 36
-231 37
-36 -37 231
-232 227
-232 -230
-227 230 232
-233 -227
-233 230
227 -230 233
-234 -232
-234 -233
232 233 234
-235 -227
-235 -230
227 230 235
-236 -231
-236 -235
231 235 236
-237 -37
-237 38
37 -38 237
-238 37
-238 -38
-37 38 238
-239 -237
-239 -238
237 238 239
-240 37
-240 38
-37 -38 240
-241 236
-241 -239
-236 239 241
-242 -236
-242 239
236 -239 242
-243 -241
-243 -242
241 242 243
-244 -236
-244 -239
236 239 244
-245 -240
-245 -244
240 244 245
-246 -38
-246 39
38 -39 246
-247 38
-247 -39
-38 39 247
-248 -246
-248 -247
246 247 248
-249 38
-249 39
-38 -39 249
-250 245
-250 -248
-245 248 250
-251 -245
-251 248
245 -248 251
-252 -250
-252 -251
250 251 252
-253 -245
-253 -248
245 248 253
-254 -249
-254 -253
249 253 254
-255 -39
-255 40
39 -40 255
-256 39
-256 -40
-39 40 256
-257 -255
-257 -256
255 256 257
-258 39
-258 40
-39 -40 258
-259 254
-259 -257
-254 257 259
-260 -254
-260 257
254 -257 260
-261 -259
-261 -260
259 260 261
-262 -254
-262 -257
254 257 262
-263 -258
-263 -262
258 262 263
-264 -40
-264 41
40 -41 264
-265 40
-265 -41
-40 41 265
-266 -264
-266 -265
264 265 266
-267 40
-267 41
-40 -41 267
-268 263
-268 -266
-263 266 268
-269 -263
-269 266
263 -266 269
-270 -268
-270 -269
268 269 270
-271 -263
-271 -266
263 266 271
-272 -267
-272 -271
267 271 272
-273 -41
-273 42
41 -42 273
-274 41
-274 -42
-41 42 274
-275 -273
-275 -274
273 274 275
-276 41
-276 42
-41 -42 276
-277 272
-277 -275
-272 275 277
-278 -272
-278 275
272 -275 278
-279 -277
-279 -278
277 278 279
-280 -272
-280 -275
272 275 280
-281 -276
-281 -280
276 280 281
-282 18
-282 -72
-18 72 282
-283 -18
-283 20
18 -20 283
-284 -282
-284 -283
282 283 284
-285 18
-285 -81
-18 81 285
-286 -18
-286 21
18 -21 286
-287 -285
-287 -286
285 286 287
-288 18
-288 -90
-18 90 288
-289 -18
-289 22
18 -22 289
-290 -288
-290 -289
288 289 290
-291 18
-291 -99
-18 99 291
-292 -18
-292 23
18 -23 292
-293 -291
-293 -292
291 292 293
-294 18
-294 -108
-18 108 294
-295 -18
-295 24
18 -24 295
-296 -294
-296 -295
294 295 296
-297 18
-297 -117
-18 117 297
-298 -18
-298 25
18 -25 298
-299 -297
-299 -298
297 298 299
-300 18
-300 -126
-18 126 300
-301 -18
-301 26
18 -26 301
-302 -300
-302 -301
300 301 302
-303 18
-303 -135
-18 135 303
-304 -18
-304 27
18 -27 304
-305 -303
-305 -304
303 304 305
-306 18
-306 -144
-18 144 306
-307 -18
-307 28
18 -28 307
-308 -306
-308 -307
306 307 308
-309 18
-309 -153
-18 153 309
-310 -18
-310 29
18 -29 310
-311 -309
-311 -310
309 310 311
-312 18
-312 -162
-18 162 312
-313 -18
-313 30
18 -30 313
-314 -312
-314 -313
312 313 314
-315 18
-315 -171
-18 171 315
-316 -18
-316 31
18 -31 316
-317 -315
-317 -316
315 316 317
-318 18
-318 -180
-18 180 318
-319 -18
-319 32
18 -32 319
-320 -318
-320 -319
318 319 320
-321 18
-321 -189
-18 189 321
-322 -18
-322 33
18 -33 322
-323 -321
-323 -322
321 322 323
-324 18
-324 -198
-18 198 324
-325 -18
-325 34
18 -34 325
-326 -324
-326 -325
324 325 326
-327 18
-327 -207
-18 207 327
-328 -18
-328 35
18 -35 328
-329 -327
-329 -328
327 328 329
-330 18
-330 -216
-18 216 330
-331 -18
-331 36
18 -36 331
-332 -330
-332 -331
330 331 332
-333 18
-333 -225
-18 225 333
-334 -18
-334 37
18 -37 334
-335 -333
-335 -334
333 334 335
-336 18
-336 -234
-18 234 336
-337 -18
-337 38
18 -38 337
-338 -336
-338 -337
336 337 338
-339 18
-339 -243
-18 243 339
-340 -18
-340 39
18 -39 340
-341 -339
-341 -340
339 340 341
-342 18
-342 -252
-18 252 342
-343 -18
-343 40
18 -40 343
-344 -342
-344 -343
342 343 344
-345 18
-345 -261
-18 261 345
-346 -18
-346 41
18 -41 346
-347 -345
-347 -346
345 346 347
-348 18
-348 -270
-18 270 348
-349 -18
-349 42
18 -42 349
-350 -348
-350 -349
348 349 350
-351 18
-351 -279
-18 279 351
-352 1
-352 65
-1 -65 352
-353 -65
-353 66
65 -66 353
-354 -352
-354 -353
352 353 354
-355 2
-355 65
-2 -65 355
-356 -65
-356 -284
65 284 356
-357 -355
-357 -356
355 356 357
-358 3
-358 65
-3 -65 358
-359 -65
-359 -287
65 287 359
-360 -358
-360 -359
358 359 360
-361 4
-361 65
-4 -65 361
-362 -65
-362 -290
65 290 362
-363 -361
-363 -362
361 362 363
-364 5
-364 65
-5 -65 364
-365 -65
-365 -293
65 293 365
-366 -364
-366 -365
364 365 366
-367 6
-367 65
-6 -65 367
-368 -65
-368 -296
65 296 368
-369 -367
-369 -368
367 368 369
-370 7
-370 65
-7 -65 370
-371 -65
-371 -299
65 299 371
-372 -370
-372 -371
370 371 372
-373 8
-373 65
-8 -65 373
-374 -65
-374 -302
65 302 374
-375 -373
-375 -374
373 374 375
-376 9
-376 65
-9 -65 376
-377 -65
-377 -305
65 305 377
-378 -376
-378 -377
376 377 378
-379 10
-379 65
-10 -65 379
-380 -65
-380 -308
65 308 380
-381 -379
-381 -380
379 380 381
-382 11
-382 65
-11 -65 382
-383 -65
-383 -311
65 311 383
-384 -382
-384 -383
382 383 384
-385 12
-385 65
-12 -65 385
-386 -65
-386 -314
65 314 386
-387 -385
-387 -386
385 386 387
-388 13
-388 65
-13 -65 388
-389 -65
-389 -317
65 317 389
-390 -388
-390 -389
388 389 390
-391 14
-391 65
-14 -65 391
-392 -65
-392 -320
65 320 392
-393 -391
-393 -392
391 392 393
-394 15
-394 65
-15 -65 394
-395 -65
-395 -323
65 323 395
-396 -394
-396 -395
394 395 396
-397 16
-397 65
-16 -65 397
-398 -65
-398 -326
65 326 398
-399 -397
-399 -398
397 398 399
-400 17
-400 65
-17 -65 400
-401 -65
-401 -329
65 329 401
-402 -400
-402 -401
400 401 402
-403 -65
-403 -332
65 332 403
-404 -65
-404 -335
65 335 404
-405 -65
-405 -338
65 338 405
-406 -65
-406 -341
65 341 406
-407 -65
-407 -344
65 344 407
-408 -65
-408 -347
65 347 408
-409 -65
-409 -350
65 350 409
-410 -65
-410 351
65 -351 410
-411 -42
-411 281
42 -281 411
-412 18
-412 -411
-18 411 412
412
